Traveling Salesman Problem/TSP_generados/Aleatorio1621103539_15.tsp
NAME: Aleatorio1621103539_15.tsp
COMMENT: Randomly generated scenario
TYPE: TSP
DIMENSION: 15
EDGE_WEIGHT_TYPE: ATT
NODE_COORD_SECTION
1 8.18 23.44
2 32.76 27.26
3 26.23 39.89
4 32.07 37.8
5 27.92 49.48
6 9.85 31.89
7 23.62 33.13
8 33.16 14.36
9 25.84 1.94
10 7.55 49.96
11 28.89 14.86
12 44.94 33.01
13 30.46 28.53
14 37.56 40.11
15 16.73 27.08
