Traveling Salesman Problem/TSP_generados/Aleatorio1621103539_15.opt.tour
NAME: Aleatorio1621103539_15.opt.tour
COMMENT: Optimal solution for Aleatorio1621103539_15 (171.41485755162321)
TYPE: TOUR
DIMENSION: 15
TOUR_SECTION
1 15 7 13 2 11 9 8 12 14 4 3 5 10 6
-1
EOF
